500
    1    15     5
    2    16     6
    3    56    46
    4    52    42
    5    56    46
    6    46    36
    7    37    27
    8    42    32
    9    18     8
   10    27    17
   11    25    15
   12    51    41
   13    41    31
   14    29    19
   15    55    45
   16    25    15
   17    53    43
   18    22    12
   19    32    22
   20    52    42
   21    55    45
   22    51    41
   23    39    29
   24    19     9
   25    56    46
   26    51    41
   27    16     6
   28    60    50
   29    38    28
   30    51    41
   31    38    28
   32    54    44
   33    55    45
   34    34    24
   35    48    38
   36    44    34
   37    21    11
   38    42    32
   39    50    40
   40    49    39
   41    37    27
   42    49    39
   43    21    11
   44    45    35
   45    16     6
   46    52    42
   47    24    14
   48    18     8
   49    16     6
   50    45    35
   51    46    36
   52    12     2
   53    38    28
   54    50    40
   55    55    45
   56    15     5
   57    15     5
   58    46    36
   59    47    37
   60    30    20
   61    43    33
   62    45    35
   63    17     7
   64    38    28
   65    17     7
   66    14     4
   67    49    39
   68    55    45
   69    60    50
   70    17     7
   71    47    37
   72    21    11
   73    22    12
   74    25    15
   75    40    30
   76    11     1
   77    16     6
   78    20    10
   79    16     6
   80    15     5
   81    11     1
   82    38    28
   83    37    27
   84    39    29
   85    50    40
   86    31    21
   87    33    23
   88    49    39
   89    49    39
   90    30    20
   91    18     8
   92    21    11
   93    19     9
   94    26    16
   95    39    29
   96    16     6
   97    29    19
   98    38    28
   99    12     2
  100    11     1
  101    16     6
  102    33    23
  103    22    12
  104    44    34
  105    53    43
  106    51    41
  107    34    24
  108    53    43
  109    30    20
  110    16     6
  111    35    25
  112    40    30
  113    49    39
  114    28    18
  115    52    42
  116    56    46
  117    54    44
  118    54    44
  119    18     8
  120    17     7
  121    52    42
  122    34    24
  123    38    28
  124    30    20
  125    59    49
  126    33    23
  127    46    36
  128    47    37
  129    11     1
  130    32    22
  131    32    22
  132    15     5
  133    24    14
  134    27    17
  135    60    50
  136    33    23
  137    20    10
  138    24    14
  139    43    33
  140    11     1
  141    55    45
  142    49    39
  143    19     9
  144    23    13
  145    58    48
  146    25    15
  147    21    11
  148    23    13
  149    13     3
  150    22    12
  151    22    12
  152    48    38
  153    36    26
  154    38    28
  155    51    41
  156    19     9
  157    42    32
  158    14     4
  159    42    32
  160    47    37
  161    13     3
  162    39    29
  163    55    45
  164    20    10
  165    40    30
  166    29    19
  167    51    41
  168    52    42
  169    43    33
  170    45    35
  171    45    35
  172    28    18
  173    29    19
  174    50    40
  175    26    16
  176    19     9
  177    40    30
  178    32    22
  179    21    11
  180    46    36
  181    42    32
  182    60    50
  183    58    48
  184    15     5
  185    58    48
  186    27    17
  187    31    21
  188    42    32
  189    30    20
  190    26    16
  191    43    33
  192    20    10
  193    15     5
  194    19     9
  195    12     2
  196    44    34
  197    54    44
  198    50    40
  199    54    44
  200    16     6
  201    57    47
  202    50    40
  203    46    36
  204    51    41
  205    48    38
  206    50    40
  207    26    16
  208    53    43
  209    59    49
  210    23    13
  211    12     2
  212    17     7
  213    47    37
  214    34    24
  215    14     4
  216    56    46
  217    60    50
  218    60    50
  219    11     1
  220    22    12
  221    34    24
  222    57    47
  223    19     9
  224    58    48
  225    55    45
  226    41    31
  227    47    37
  228    25    15
  229    49    39
  230    26    16
  231    22    12
  232    39    29
  233    31    21
  234    27    17
  235    39    29
  236    49    39
  237    19     9
  238    22    12
  239    12     2
  240    19     9
  241    59    49
  242    55    45
  243    16     6
  244    14     4
  245    55    45
  246    58    48
  247    16     6
  248    11     1
  249    33    23
  250    37    27
  251    24    14
  252    26    16
  253    33    23
  254    32    22
  255    53    43
  256    36    26
  257    16     6
  258    45    35
  259    45    35
  260    46    36
  261    55    45
  262    60    50
  263    41    31
  264    11     1
  265    18     8
  266    58    48
  267    28    18
  268    20    10
  269    46    36
  270    51    41
  271    28    18
  272    39    29
  273    59    49
  274    12     2
  275    24    14
  276    13     3
  277    27    17
  278    13     3
  279    14     4
  280    21    11
  281    11     1
  282    44    34
  283    34    24
  284    54    44
  285    47    37
  286    17     7
  287    37    27
  288    51    41
  289    11     1
  290    34    24
  291    56    46
  292    50    40
  293    20    10
  294    41    31
  295    43    33
  296    39    29
  297    56    46
  298    44    34
  299    58    48
  300    20    10
  301    33    23
  302    54    44
  303    24    14
  304    52    42
  305    41    31
  306    11     1
  307    32    22
  308    51    41
  309    41    31
  310    18     8
  311    58    48
  312    42    32
  313    60    50
  314    57    47
  315    57    47
  316    53    43
  317    55    45
  318    33    23
  319    51    41
  320    49    39
  321    19     9
  322    30    20
  323    26    16
  324    13     3
  325    50    40
  326    44    34
  327    45    35
  328    15     5
  329    33    23
  330    60    50
  331    46    36
  332    59    49
  333    30    20
  334    25    15
  335    47    37
  336    48    38
  337    57    47
  338    32    22
  339    53    43
  340    59    49
  341    54    44
  342    34    24
  343    35    25
  344    12     2
  345    34    24
  346    46    36
  347    43    33
  348    24    14
  349    14     4
  350    11     1
  351    54    44
  352    54    44
  353    34    24
  354    15     5
  355    11     1
  356    30    20
  357    14     4
  358    36    26
  359    51    41
  360    18     8
  361    59    49
  362    29    19
  363    58    48
  364    19     9
  365    56    46
  366    41    31
  367    40    30
  368    29    19
  369    54    44
  370    23    13
  371    27    17
  372    35    25
  373    18     8
  374    41    31
  375    45    35
  376    56    46
  377    35    25
  378    57    47
  379    35    25
  380    31    21
  381    32    22
  382    34    24
  383    46    36
  384    37    27
  385    44    34
  386    31    21
  387    48    38
  388    44    34
  389    55    45
  390    18     8
  391    57    47
  392    13     3
  393    43    33
  394    42    32
  395    43    33
  396    26    16
  397    60    50
  398    38    28
  399    17     7
  400    36    26
  401    56    46
  402    52    42
  403    28    18
  404    47    37
  405    14     4
  406    50    40
  407    58    48
  408    56    46
  409    20    10
  410    26    16
  411    26    16
  412    56    46
  413    40    30
  414    49    39
  415    15     5
  416    17     7
  417    35    25
  418    28    18
  419    31    21
  420    31    21
  421    12     2
  422    39    29
  423    47    37
  424    35    25
  425    38    28
  426    37    27
  427    14     4
  428    47    37
  429    45    35
  430    45    35
  431    27    17
  432    56    46
  433    24    14
  434    37    27
  435    27    17
  436    27    17
  437    39    29
  438    45    35
  439    58    48
  440    31    21
  441    43    33
  442    55    45
  443    60    50
  444    46    36
  445    17     7
  446    37    27
  447    41    31
  448    26    16
  449    27    17
  450    38    28
  451    27    17
  452    31    21
  453    11     1
  454    60    50
  455    27    17
  456    53    43
  457    31    21
  458    28    18
  459    34    24
  460    52    42
  461    45    35
  462    50    40
  463    48    38
  464    19     9
  465    50    40
  466    54    44
  467    56    46
  468    17     7
  469    51    41
  470    59    49
  471    21    11
  472    28    18
  473    29    19
  474    28    18
  475    51    41
  476    14     4
  477    12     2
  478    11     1
  479    32    22
  480    60    50
  481    13     3
  482    57    47
  483    17     7
  484    57    47
  485    13     3
  486    26    16
  487    29    19
  488    40    30
  489    22    12
  490    33    23
  491    16     6
  492    24    14
  493    15     5
  494    34    24
  495    37    27
  496    19     9
  497    28    18
  498    49    39
  499    30    20
  500    29    19
10821
